c read Graph
c width = 131
c time = 189 ms
c width = 16
c time = 391 ms
c width = 15
c time = 510 ms
c width = 14
c time = 1367 ms
c width = 13
c time = 2808 ms
c width = 12
c time = 8891 ms
c width = 12
c time = 10937 ms
s td 130 13 144
b 1 1 2 13
b 2 2 3 13 14
b 3 10 11 23 24
b 4 3 13 14 25
b 5 10 23 24 36
b 6 109 121 122 134
b 7 120 131 132 143
b 8 109 122 134 135
b 9 120 131 142 143
b 10 3 4 14 15 25
b 11 4 5 14 15 16 25
b 12 5 6 14 15 16 17 25
b 13 6 7 14 15 16 17 18 25
b 14 7 8 14 15 16 17 18 19 25
b 15 8 9 14 15 16 17 18 19 20 25
b 16 9 10 14 15 16 17 18 19 20 21 25
b 17 10 14 15 16 17 18 19 20 21 22 23 25 36
b 18 14 15 16 17 18 19 20 21 22 23 25 26 36
b 19 15 16 17 18 19 20 21 22 23 25 26 27 36
b 20 16 17 18 19 20 21 22 23 25 26 27 28 36
b 21 17 18 19 20 21 22 23 25 26 27 28 29 36
b 22 18 19 20 21 22 23 25 26 27 28 29 30 36
b 23 19 20 21 22 23 25 26 27 28 29 30 31 36
b 24 20 21 22 23 25 26 27 28 29 30 31 32 36
b 25 21 22 23 25 26 27 28 29 30 31 32 33 36
b 26 22 23 25 26 27 28 29 30 31 32 33 34 36
b 27 23 25 26 27 28 29 30 31 32 33 34 35 36
b 28 25 26 27 28 29 30 31 32 33 34 35 36 37
b 29 26 27 28 29 30 31 32 33 34 35 36 37 38
b 30 27 28 29 30 31 32 33 34 35 36 37 38 39
b 31 28 29 30 31 32 33 34 35 36 37 38 39 40
b 32 29 30 31 32 33 34 35 36 37 38 39 40 41
b 33 30 31 32 33 34 35 36 37 38 39 40 41 42
b 34 31 32 33 34 35 36 37 38 39 40 41 42 43
b 35 32 33 34 35 36 37 38 39 40 41 42 43 44
b 36 33 34 35 36 37 38 39 40 41 42 43 44 45
b 37 34 35 36 37 38 39 40 41 42 43 44 45 46
b 38 35 36 37 38 39 40 41 42 43 44 45 46 47
b 39 36 37 38 39 40 41 42 43 44 45 46 47 48
b 40 37 38 39 40 41 42 43 44 45 46 47 48 49
b 41 38 39 40 41 42 43 44 45 46 47 48 49 50
b 42 39 40 41 42 43 44 45 46 47 48 49 50 51
b 43 40 41 42 43 44 45 46 47 48 49 50 51 52
b 44 41 42 43 44 45 46 47 48 49 50 51 52 53
b 45 42 43 44 45 46 47 48 49 50 51 52 53 54
b 46 43 44 45 46 47 48 49 50 51 52 53 54 55
b 47 44 45 46 47 48 49 50 51 52 53 54 55 56
b 48 45 46 47 48 49 50 51 52 53 54 55 56 57
b 49 46 47 48 49 50 51 52 53 54 55 56 57 58
b 50 47 48 49 50 51 52 53 54 55 56 57 58 59
b 51 48 49 50 51 52 53 54 55 56 57 58 59 60
b 52 49 50 51 52 53 54 55 56 57 58 59 60 61
b 53 50 51 52 53 54 55 56 57 58 59 60 61 62
b 54 51 52 53 54 55 56 57 58 59 60 61 62 63
b 55 52 53 54 55 56 57 58 59 60 61 62 63 64
b 56 53 54 55 56 57 58 59 60 61 62 63 64 65
b 57 54 55 56 57 58 59 60 61 62 63 64 65 66
b 58 55 56 57 58 59 60 61 62 63 64 65 66 67
b 59 56 57 58 59 60 61 62 63 64 65 66 67 68
b 60 57 58 59 60 61 62 63 64 65 66 67 68 69
b 61 58 59 60 61 62 63 64 65 66 67 68 69 70
b 62 59 60 61 62 63 64 65 66 67 68 69 70 71
b 63 60 61 62 63 64 65 66 67 68 69 70 71 72
b 64 61 62 63 64 65 66 67 68 69 70 71 72 74
b 65 61 63 64 65 66 67 68 69 70 71 72 74 76
b 66 61 63 65 66 67 68 69 70 71 72 74 76 77
b 67 61 63 66 67 68 69 70 71 72 74 76 77 78
b 68 61 63 67 68 69 70 71 72 74 76 77 78 79
b 69 61 63 68 69 70 71 72 74 76 77 78 79 80
b 70 61 63 69 70 71 72 74 76 77 78 79 80 81
b 71 61 63 70 71 72 74 76 77 78 79 80 81 82
b 72 61 63 71 72 74 76 77 78 79 80 81 82 83
b 73 61 63 72 74 76 77 78 79 80 81 82 83 96
b 74 61 63 74 76 77 78 79 80 81 82 83 89 96
b 75 61 63 74 76 78 79 80 81 82 83 89 90 96
b 76 61 63 74 76 79 80 81 82 83 89 90 91 96
b 77 61 63 74 76 80 81 82 83 89 90 91 92 96
b 78 61 63 74 76 81 82 83 89 90 91 92 93 96
b 79 61 63 74 76 82 83 89 90 91 92 93 94 96
b 80 61 63 74 76 83 89 90 91 92 93 94 95 96
b 81 61 63 74 76 89 90 91 92 93 94 95 96 102
b 82 61 63 74 76 89 91 92 93 94 95 96 102 103
b 83 61 63 74 76 89 92 93 94 95 96 102 103 104
b 84 61 63 74 76 89 93 94 95 96 102 103 104 105
b 85 61 63 74 76 89 94 95 96 102 103 104 105 106
b 86 61 63 74 76 89 95 96 102 103 104 105 106 107
b 87 61 63 74 76 89 96 102 103 104 105 106 107 120
b 88 61 63 74 76 89 102 103 104 105 106 107 115 120
b 89 61 63 74 76 89 102 104 105 106 107 115 116 120
b 90 61 63 74 76 89 102 105 106 107 115 116 117 120
b 91 61 63 74 76 89 102 106 107 115 116 117 120 128
b 92 61 63 74 76 89 102 106 107 115 117 120 128 140
b 93 106 107 115 117 120 128 129 140
b 94 61 63 74 76 89 102 114 115 125 128 136 140
b 95 114 115 125 128 136 140
b 96 61 63 74 76 89 101 102 114 125 136
b 97 61 63 74 76 88 89 101 114 125 136
b 98 61 63 74 76 87 88 101 114 125 136
b 99 61 74 87 88 101 112 114 125 136
b 100 61 74 87 88 99 101 112 125 136
b 101 88 99 100 101 112
b 102 61 74 87 99 109 110 112 125 136
b 103 61 74 87 98 99 109 110
b 104 61 74 85 87 98 109
b 105 85 97 98 109
b 106 61 73 74 85
b 107 74 85 86 87 98
b 108 99 109 110 112 123 125 136
b 109 99 110 111 112 123
b 110 109 110 123 135 136
b 111 109 110 122 123 135
b 112 112 123 124 125 136
b 113 101 112 113 114 125
b 114 63 74 75 76 87
b 115 114 115 125 127 128 136 140
b 116 114 125 127 136 138 140
b 117 114 125 126 127 138
b 118 125 136 137 138
b 119 127 138 139 140
b 120 96 107 108 120
b 121 106 107 117 119 120 129 140
b 122 106 117 119 120 129 130 140
b 123 106 117 118 119 130
b 124 119 120 129 130 140 142
b 125 129 140 141 142
b 126 119 120 130 131 142
b 127 72 83 84 96
b 128 132 143 144
b 129 121 133 134
b 130 11 12 24
1 2
2 4
3 130
3 5
4 10
5 17
6 129
6 8
7 128
7 9
8 111
9 126
10 11
11 12
12 13
13 14
14 15
15 16
16 17
17 18
18 19
19 20
20 21
21 22
22 23
23 24
24 25
25 26
26 27
27 28
28 29
29 30
30 31
31 32
32 33
33 34
34 35
35 36
36 37
37 38
38 39
39 40
40 41
41 42
42 43
43 44
44 45
45 46
46 47
47 48
48 49
49 50
50 51
51 52
52 53
53 54
54 55
55 56
56 57
57 58
58 59
59 60
60 61
61 62
62 63
63 64
64 65
65 66
66 67
67 68
68 69
69 70
70 71
71 72
72 73
73 127
73 74
74 75
75 76
76 77
77 78
78 79
79 80
80 81
81 82
82 83
83 84
84 85
85 86
86 87
87 120
87 88
88 89
89 90
90 91
91 92
92 94
92 93
93 121
94 115
94 96
94 95
96 97
97 98
98 114
98 99
99 100
99 113
100 101
100 102
102 103
102 108
103 104
104 106
104 105
104 107
108 110
108 112
108 109
110 111
115 116
116 118
116 119
116 117
121 122
122 123
122 124
124 126
124 125
